NAME : XML100_1216_21
DIMENSION : 101
NB_CLUSTERS : 7
CLUSTERING_ALG : KMeans
CLUSTERING_PARAMS : k(6)
CLUSTERS
1 0
2 1 8 18 30 36 41 59 60 68 72 76 81 89 93 94 95
3 4 7 29 33 52 57 61 62 67 70 71 77 79 84 85 91 97
4 2 11 19 21 32 34 42 44 45 46 51 55 56 69 75 90 98
5 6 9 10 14 17 22 24 25 35 37 48 50 53 58 64 66 82 83 86 92 99 100
6 3 5 13 16 20 27 28 31 65 73 74 87 88
7 12 15 23 26 38 39 40 43 47 49 54 63 78 80 96
EOF